c generated by sgen
p cnf 45 100
-2 -3 -4 0
-1 -3 -4 0
-1 -2 -4 0
-1 -2 -3 0
-6 -7 -8 0
-5 -7 -8 0
-5 -6 -8 0
-5 -6 -7 0
-10 -11 -12 0
-9 -11 -12 0
-9 -10 -12 0
-9 -10 -11 0
-14 -15 -16 0
-13 -15 -16 0
-13 -14 -16 0
-13 -14 -15 0
-18 -19 -20 0
-17 -19 -20 0
-17 -18 -20 0
-17 -18 -19 0
-22 -23 -24 0
-21 -23 -24 0
-21 -22 -24 0
-21 -22 -23 0
-26 -27 -28 0
-25 -27 -28 0
-25 -26 -28 0
-25 -26 -27 0
-30 -31 -32 0
-29 -31 -32 0
-29 -30 -32 0
-29 -30 -31 0
-34 -35 -36 0
-33 -35 -36 0
-33 -34 -36 0
-33 -34 -35 0
-38 -39 -40 0
-37 -39 -40 0
-37 -38 -40 0
-37 -38 -39 0
-41 -42 -43 0
-41 -42 -44 0
-41 -42 -45 0
-41 -43 -44 0
-41 -43 -45 0
-41 -44 -45 0
-42 -43 -44 0
-42 -43 -45 0
-42 -44 -45 0
-43 -44 -45 0
8 14 31 0
22 14 31 0
22 8 31 0
22 8 14 0
25 39 5 0
11 39 5 0
11 25 5 0
11 25 39 0
4 33 12 0
23 33 12 0
23 4 12 0
23 4 33 0
44 15 27 0
1 15 27 0
1 44 27 0
1 44 15 0
35 41 38 0
6 41 38 0
6 35 38 0
6 35 41 0
29 3 21 0
40 3 21 0
40 29 21 0
40 29 3 0
18 45 2 0
7 45 2 0
7 18 2 0
7 18 45 0
32 17 34 0
28 17 34 0
28 32 34 0
28 32 17 0
26 20 24 0
43 20 24 0
43 26 24 0
43 26 20 0
16 10 37 0
19 10 37 0
19 16 37 0
19 16 10 0
30 9 42 0
30 9 13 0
30 9 36 0
30 42 13 0
30 42 36 0
30 13 36 0
9 42 13 0
9 42 36 0
9 13 36 0
42 13 36 0
